L=18;
no=10;
njo=[9,9,9,8,9,9,9,8,8,9];
djo=[18,14,12,14,16,18,12,14,14,13];
trab=[2,6,12,6,18,2,4,3,2,6,6,18,4,3,2,6,3,12,4,6,6,6,2,12,3,3,6,2,2,6,2,3,3,2,12,4,3,2,2,12,6,6,2,3,6,2,4,3,3,6,3,2,4,12,2,6,2,3,3,2,3,6,6,12,2,12,3,3,6,2,2,3,2,2,3,3,3,6,3,2,6,12,3,3,4,2,3,3,6,2,6,2,3,6,6,2,18,3,6,6,4,12,2,6,2,6,12,2,2,6,3,6,3,3,6,6,6,6,4,2,3,12,2,6,6,12,6,18,2,6,6,3,3,18,12,12,6,6,6,6,6,12,6,3,2];
nprec=21;
prec=[| 1, 12,
      | 2, 14,
      | 5, 18,
      | 15, 23,
      | 20, 28,
      | 30, 37,
      | 32, 40,
      | 34, 42,
      | 36, 50,
      | 38, 52,
      | 39, 53,
      | 46, 60,
      | 47, 61,
      | 49, 62,
      | 54, 66,
      | 55, 67,
      | 57, 68,
      | 69, 74,
      | 72, 80,
      | 73, 84,
      | 74, 85 |];


%%%%%%%%%%%%%%%%%%%%%%%%%%%%%%%%%%%%%%%%%%%%%%%%%%%%%%%%%%%%%%%%%%%%%%
% 10
%
%  9   1   9  18 115
%  2   6  12   6  18   2   4   3   2   6   6  18   4   3   2   6   3  12 
%  1   1   1   0   1
%      2   3  12
%  1   2   2   0   1
%      2   5  14
%  1   3   3   0   0
%  1   4   4   0   0
%  1   5   5   0   1
%      2   9  18
%  1   6   6   0   0
%  1   7   7   0   0
%  1   8   8   0   0
%  1   9   9   0   0
%
%  9  10  18  14  63
%  4   6   6   6   2  12   3   3   6   2   2   6   2   3 
%  2   1  10   0   0
%  2   2  11   0   0
%  2   3  12   1   0
%      1   1   1
%  2   4  13   0   0
%  2   5  14   1   0
%      1   2   2
%  2   6  15   0   1
%      3   5  23
%  2   7  16   0   0
%  2   8  17   0   0
%  2   9  18   1   0
%      1   5   5
%
%  9  19  27  12  57
%  3   2  12   4   3   2   2  12   6   6   2   3 
%  3   1  19   0   0
%  3   2  20   0   1
%      4   1  28
%  3   3  21   0   0
%  3   4  22   0   0
%  3   5  23   1   0
%      2   6  15
%  3   6  24   0   0
%  3   7  25   0   0
%  3   8  26   0   0
%  3   9  27   0   0
%
%  8  28  35  14  58
%  6   2   4   3   3   6   3   2   4  12   2   6   2   3 
%  4   1  28   1   0
%      3   2  20
%  4   2  29   0   0
%  4   3  30   0   1
%      5   2  37
%  4   4  31   0   0
%  4   5  32   0   1
%      5   5  40
%  4   6  33   0   0
%  4   7  34   0   1
%      5   7  42
%  4   8  35   0   0
%
%  9  36  44  16  69
%  3   2   3   6   6  12   2  12   3   3   6   2   2   3   2   2 
%  5   1  36   0   1
%      6   6  50
%  5   2  37   1   0
%      4   3  30
%  5   3  38   0   1
%      6   8  52
%  5   4  39   0   1
%      6   9  53
%  5   5  40   1   0
%      4   5  32
%  5   6  41   0   0
%  5   7  42   1   0
%      4   7  34
%  5   8  43   0   0
%  5   9  44   0   0
%
%  9  45  53  18  72
%  3   3   3   6   3   2   6  12   3   3   4   2   3   3   6   2   6   2 
%  6   1  45   0   0
%  6   2  46   0   1
%      7   7  60
%  6   3  47   0   1
%      7   8  61
%  6   4  48   0   0
%  6   5  49   0   1
%      7   9  62
%  6   6  50   1   0
%      5   1  36
%  6   7  51   0   0
%  6   8  52   1   0
%      5   3  38
%  6   9  53   1   0
%      5   4  39
%
%  9  54  62  12  74
%  3   6   6   2  18   3   6   6   4  12   2   6 
%  7   1  54   0   1
%      8   4  66
%  7   2  55   0   1
%      8   5  67
%  7   3  56   0   0
%  7   4  57   0   1
%      8   6  68
%  7   5  58   0   0
%  7   6  59   0   0
%  7   7  60   1   0
%      6   2  46
%  7   8  61   1   0
%      6   3  47
%  7   9  62   1   0
%      6   5  49
%
%  8  63  70  14  69
%  2   6  12   2   2   6   3   6   3   3   6   6   6   6 
%  8   1  63   0   0
%  8   2  64   0   0
%  8   3  65   0   0
%  8   4  66   1   0
%      7   1  54
%  8   5  67   1   0
%      7   2  55
%  8   6  68   1   0
%      7   4  57
%  8   7  69   0   1
%      9   4  74
%  8   8  70   0   0
%
%  8  71  78  14  88
%  4   2   3  12   2   6   6  12   6  18   2   6   6   3 
%  9   1  71   0   0
%  9   2  72   0   1
%     10   2  80
%  9   3  73   0   1
%     10   6  84
%  9   4  74   1   1
%      8   7  69
%     10   7  85
%  9   5  75   0   0
%  9   6  76   0   0
%  9   7  77   0   0
%  9   8  78   0   0
%
%  9  79  87  13  98
%  3  18  12  12   6   6   6   6   6  12   6   3   2 
% 10   1  79   0   0
% 10   2  80   1   0
%      9   2  72
% 10   3  81   0   0
% 10   4  82   0   0
% 10   5  83   0   0
% 10   6  84   1   0
%      9   3  73
% 10   7  85   1   0
%      9   4  74
% 10   8  86   0   0
% 10   9  87   0   0
%
%194
